135
200
160	1
159	3
158	3
157	5
156	5
155	5
154	3
153	1
152	6
151	10
150	7
149	6
148	4
147	4
146	4
145	2
144	8
143	5
142	5
141	5
140	4
139	3
138	7
137	5
136	5
135	4
134	2
133	6
132	4
130	5
129	5
128	6
127	3
126	2
125	6
124	5
123	2
122	5
121	1
120	3
119	2
118	3
117	5
116	2
115	3
114	2
113	3
112	10
111	6
110	4
109	1
108	3
107	6
106	2
105	4
104	3
103	3
102	6
101	2
100	2
99	6
97	3
96	4
95	3
94	1
93	4
92	5
91	4
90	4
89	5
88	4
87	6
86	4
85	4
84	2
83	5
82	1
81	2
80	6
78	2
77	3
76	8
75	2
74	4
73	2
72	1
71	2
70	4
69	6
68	7
67	2
66	4
65	2
63	4
62	4
61	5
60	2
59	6
58	3
57	3
56	5
55	5
54	1
53	1
52	3
51	3
50	3
48	3
47	6
46	3
45	6
44	4
43	1
42	3
41	2
40	2
39	3
38	3
37	2
36	3
35	1
34	3
33	4
32	2
31	3
30	4
28	1
27	4
26	2
25	7
24	3
23	3
22	3
21	1
20	1
